(set-info :smt-lib-version 2.6)
(set-logic LIA)
(set-info
  :source |
 Generated by PSyCO 0.1
 More info in N. P. Lopes and J. Monteiro. Weakest Precondition Synthesis for
 Compiler Optimizations, VMCAI'14.
|)
(set-info :category "industrial")
(set-info :status sat)
(declare-fun R_E1_V6 () Bool)
(declare-fun W_S1_V6 () Bool)
(declare-fun R_E1_V4 () Bool)
(declare-fun W_S1_V4 () Bool)
(declare-fun W_S1_V3 () Bool)
(declare-fun W_S1_V1 () Bool)
(declare-fun R_S1_V6 () Bool)
(declare-fun R_S1_V4 () Bool)
(declare-fun R_S1_V5 () Bool)
(declare-fun R_S1_V2 () Bool)
(declare-fun R_S1_V3 () Bool)
(declare-fun R_S1_V1 () Bool)
(declare-fun R_E2_V6 () Bool)
(declare-fun R_E2_V4 () Bool)
(declare-fun R_E2_V5 () Bool)
(declare-fun R_E2_V2 () Bool)
(declare-fun R_E2_V1 () Bool)
(declare-fun R_E1_V5 () Bool)
(declare-fun DISJ_W_S1_R_S1 () Bool)
(declare-fun DISJ_W_S1_R_E2 () Bool)
(declare-fun W_S1_V5 () Bool)
(declare-fun W_S1_V2 () Bool)
(declare-fun R_E1_V3 () Bool)
(declare-fun R_E1_V1 () Bool)
(declare-fun R_E2_V3 () Bool)
(declare-fun DISJ_W_S1_R_E1 () Bool)
(assert
 (let
 (($x62691
   (forall
    ((V2_0 Int) (V5_0 Int) 
     (V4_0 Int) (V6_0 Int) 
     (MW_S1_V1 Bool) (MW_S1_V3 Bool) 
     (MW_S1_V2 Bool) (MW_S1_V5 Bool) 
     (MW_S1_V4 Bool) (MW_S1_V6 Bool) 
     (S1_V1_!7824 Int) (S1_V1_!7834 Int) 
     (S1_V1_!7840 Int) (S1_V3_!7825 Int) 
     (S1_V3_!7835 Int) (S1_V3_!7841 Int) 
     (S1_V2_!7826 Int) (S1_V2_!7836 Int) 
     (S1_V2_!7842 Int) (E1_!7821 Int) 
     (E1_!7831 Int) (E1_!7833 Int) 
     (S1_V5_!7827 Int) (S1_V5_!7837 Int) 
     (S1_V5_!7843 Int) (E2_!7822 Int) 
     (E2_!7823 Int) (E2_!7830 Int) 
     (E2_!7832 Int) (S1_V4_!7828 Int) 
     (S1_V4_!7838 Int) (S1_V4_!7844 Int) 
     (S1_V6_!7829 Int) (S1_V6_!7839 Int) 
     (S1_V6_!7845 Int))
    (let ((?x62331 (ite MW_S1_V1 S1_V1_!7824 E1_!7821)))
    (let
    (($x61069
      (and
      (= ?x62331
      (+ (- 1)
      (ite MW_S1_V1 S1_V1_!7840 (+ 1 (ite MW_S1_V1 S1_V1_!7834 E1_!7833)))))
      (= E2_!7830 (+ 1 (ite MW_S1_V3 S1_V3_!7841 E2_!7832)))
      (= (ite MW_S1_V2 S1_V2_!7826 V2_0) (ite MW_S1_V2 S1_V2_!7842 V2_0))
      (= (ite MW_S1_V5 S1_V5_!7827 V5_0) (ite MW_S1_V5 S1_V5_!7843 V5_0))
      (= (ite MW_S1_V4 S1_V4_!7828 V4_0) (ite MW_S1_V4 S1_V4_!7844 V4_0))
      (= (ite MW_S1_V6 S1_V6_!7829 V6_0) (ite MW_S1_V6 S1_V6_!7845 V6_0)))))
    (let
    (($x63800
      (>=
      (ite MW_S1_V1 S1_V1_!7840 (+ 1 (ite MW_S1_V1 S1_V1_!7834 E1_!7833)))
      (+ (- 1) (ite MW_S1_V2 S1_V2_!7842 V2_0)))))
    (let
    (($x63975
      (and (not (<= V4_0 E2_!7822)) 
      (not (<= V2_0 E1_!7821)) 
      (not (<= V4_0 E2_!7823))
      (>= (ite MW_S1_V3 S1_V3_!7825 E2_!7823)
      (+ (- 1) (ite MW_S1_V4 S1_V4_!7828 V4_0)))
      (not (<= (ite MW_S1_V2 S1_V2_!7826 V2_0) (+ 1 ?x62331)))
      (>= E2_!7830 (ite MW_S1_V4 S1_V4_!7828 V4_0))
      (>= ?x62331 (+ (- 2) (ite MW_S1_V2 S1_V2_!7826 V2_0)))
      (not (<= V2_0 E1_!7831)) 
      (not (<= V4_0 E2_!7832)) 
      (not (<= V2_0 E1_!7833))
      (not
      (<= (ite MW_S1_V2 S1_V2_!7836 V2_0)
      (+ 1 (ite MW_S1_V1 S1_V1_!7834 E1_!7833)))) $x63800
      (>= (ite MW_S1_V3 S1_V3_!7841 E2_!7832)
      (+ (- 1) (ite MW_S1_V4 S1_V4_!7844 V4_0))))))
    (let
    (($x64013
      (and
      (or (not R_S1_V1)
      (= (ite MW_S1_V1 S1_V1_!7834 E1_!7833) (+ (- 1) E1_!7833)))
      (or (not R_S1_V3) (= (ite MW_S1_V3 S1_V3_!7835 E2_!7832) E2_!7832))
      (or (not R_S1_V2) (= (ite MW_S1_V2 S1_V2_!7836 V2_0) V2_0))
      (or (not R_S1_V5) (= (ite MW_S1_V5 S1_V5_!7837 V5_0) V5_0))
      (or (not R_S1_V4) (= (ite MW_S1_V4 S1_V4_!7838 V4_0) V4_0))
      (or (not R_S1_V6) (= (ite MW_S1_V6 S1_V6_!7839 V6_0) V6_0)))))
    (let (($x62327 (not $x64013)))
    (let
    (($x62966
      (and
      (or (not R_S1_V1)
      (= (ite MW_S1_V1 S1_V1_!7834 E1_!7833) (+ (- 1) E1_!7821)))
      (or (not R_S1_V3) (= (ite MW_S1_V3 S1_V3_!7835 E2_!7832) E2_!7823))
      (or (not R_S1_V2) (= (ite MW_S1_V2 S1_V2_!7836 V2_0) V2_0))
      (or (not R_S1_V5) (= (ite MW_S1_V5 S1_V5_!7837 V5_0) V5_0))
      (or (not R_S1_V4) (= (ite MW_S1_V4 S1_V4_!7838 V4_0) V4_0))
      (or (not R_S1_V6) (= (ite MW_S1_V6 S1_V6_!7839 V6_0) V6_0)))))
    (let (($x64052 (not $x62966)))
    (let
    (($x63784
      (and (or (not R_S1_V1) (= E1_!7833 E1_!7821))
      (or (not R_S1_V3) (= E2_!7832 E2_!7823)))))
    (let (($x62901 (not $x63784)))
    (let
    (($x63971
      (and
      (or (not R_S1_V1)
      (= E1_!7833 (+ 1 (ite MW_S1_V1 S1_V1_!7834 E1_!7833))))
      (or (not R_S1_V3) (= E2_!7832 (ite MW_S1_V3 S1_V3_!7835 E2_!7832)))
      (or (not R_S1_V2) (= V2_0 (ite MW_S1_V2 S1_V2_!7836 V2_0)))
      (or (not R_S1_V5) (= V5_0 (ite MW_S1_V5 S1_V5_!7837 V5_0)))
      (or (not R_S1_V4) (= V4_0 (ite MW_S1_V4 S1_V4_!7838 V4_0)))
      (or (not R_S1_V6) (= V6_0 (ite MW_S1_V6 S1_V6_!7839 V6_0))))))
    (let
    (($x64324
      (and (or (not R_E2_V1) (= ?x62331 (+ (- 1) E1_!7831)))
      (or (not R_E2_V2) (= (ite MW_S1_V2 S1_V2_!7826 V2_0) V2_0))
      (or (not R_E2_V5) (= (ite MW_S1_V5 S1_V5_!7827 V5_0) V5_0))
      (or (not R_E2_V4) (= (ite MW_S1_V4 S1_V4_!7828 V4_0) V4_0))
      (or (not R_E2_V6) (= (ite MW_S1_V6 S1_V6_!7829 V6_0) V6_0)))))
    (let
    (($x60931
      (and (or (not R_E2_V1) (= ?x62331 (+ (- 1) E1_!7821)))
      (or (not R_E2_V2) (= (ite MW_S1_V2 S1_V2_!7826 V2_0) V2_0))
      (or (not R_E2_V5) (= (ite MW_S1_V5 S1_V5_!7827 V5_0) V5_0))
      (or (not R_E2_V4) (= (ite MW_S1_V4 S1_V4_!7828 V4_0) V4_0))
      (or (not R_E2_V6) (= (ite MW_S1_V6 S1_V6_!7829 V6_0) V6_0)))))
    (let
    (($x63903
      (and
      (or (not R_S1_V1)
      (= E1_!7821 (+ 1 (ite MW_S1_V1 S1_V1_!7834 E1_!7833))))
      (or (not R_S1_V3) (= E2_!7823 (ite MW_S1_V3 S1_V3_!7835 E2_!7832)))
      (or (not R_S1_V2) (= V2_0 (ite MW_S1_V2 S1_V2_!7836 V2_0)))
      (or (not R_S1_V5) (= V5_0 (ite MW_S1_V5 S1_V5_!7837 V5_0)))
      (or (not R_S1_V4) (= V4_0 (ite MW_S1_V4 S1_V4_!7838 V4_0)))
      (or (not R_S1_V6) (= V6_0 (ite MW_S1_V6 S1_V6_!7839 V6_0))))))
    (let
    (($x61186
      (and (or (not R_S1_V1) (= E1_!7821 E1_!7833))
      (or (not R_S1_V3) (= E2_!7823 E2_!7832)))))
    (let
    (($x60243
      (and (or (not $x61186) (= S1_V1_!7824 S1_V1_!7834))
      (or (not $x63903) (= S1_V1_!7824 S1_V1_!7840))
      (or $x62327 (= S1_V1_!7840 S1_V1_!7834))
      (or (not $x61186) (= S1_V3_!7825 S1_V3_!7835))
      (or (not $x63903) (= S1_V3_!7825 S1_V3_!7841))
      (or $x62327 (= S1_V3_!7841 S1_V3_!7835))
      (or $x62901 (= S1_V2_!7836 S1_V2_!7826))
      (or $x64052 (= S1_V2_!7842 S1_V2_!7826))
      (or $x62327 (= S1_V2_!7842 S1_V2_!7836)) 
      (= E1_!7821 E1_!7831) 
      (= E1_!7821 E1_!7833) 
      (= E1_!7833 E1_!7831) 
      (or $x62901 (= S1_V5_!7837 S1_V5_!7827))
      (or (not $x63971) (= S1_V5_!7837 S1_V5_!7843))
      (or $x64052 (= S1_V5_!7843 S1_V5_!7827)) 
      (= E2_!7822 E2_!7823)
      (or (not (or (not R_E2_V1) (= E1_!7821 E1_!7831)))
      (= E2_!7822 E2_!7832))
      (or (not (or (not R_E2_V1) (= E1_!7821 E1_!7831)))
      (= E2_!7823 E2_!7832)) 
      (or (not $x60931) (= E2_!7830 E2_!7822))
      (or (not $x60931) (= E2_!7830 E2_!7823))
      (or (not $x64324) (= E2_!7830 E2_!7832))
      (or $x62901 (= S1_V4_!7838 S1_V4_!7828))
      (or (not $x63971) (= S1_V4_!7838 S1_V4_!7844))
      (or $x64052 (= S1_V4_!7844 S1_V4_!7828))
      (or $x62901 (= S1_V6_!7839 S1_V6_!7829))
      (or $x64052 (= S1_V6_!7845 S1_V6_!7829))
      (or $x62327 (= S1_V6_!7845 S1_V6_!7839)) 
      (or (not MW_S1_V1) W_S1_V1) 
      (or (not MW_S1_V3) W_S1_V3) 
      (not MW_S1_V2) (or (not MW_S1_V4) W_S1_V4) 
      (or (not MW_S1_V6) W_S1_V6))))
    (or (not $x60243) (not $x63975) $x61069))))))))))))))))))))
 (let (($x119 (not R_E1_V5)))
 (let (($x40 (and W_S1_V6 R_S1_V6)))
 (let (($x38 (and W_S1_V4 R_S1_V4)))
 (let (($x32 (and W_S1_V3 R_S1_V3)))
 (let (($x30 (and W_S1_V1 R_S1_V1)))
 (let (($x24 (and W_S1_V6 R_E2_V6)))
 (let (($x21 (and W_S1_V4 R_E2_V4)))
 (let (($x10 (and W_S1_V1 R_E2_V1)))
 (let (($x59788 (not W_S1_V1)))
 (let (($x63884 (or DISJ_W_S1_R_S1 $x59788)))
 (let (($x59796 (not W_S1_V2)))
 (let (($x115 (not R_E1_V3)))
 (let (($x113 (not R_E1_V1)))
 (let (($x130 (not R_E2_V3)))
 (and DISJ_W_S1_R_E1 $x130 $x113 $x115 $x59796 $x63884 W_S1_V5
 (= DISJ_W_S1_R_E2 (not (or $x10 R_E2_V5 $x21 $x24)))
 (= DISJ_W_S1_R_S1 (not (or $x30 $x32 R_S1_V5 $x38 $x40))) $x119 $x62691
 (not (and W_S1_V4 R_E1_V4)) 
 (not (and W_S1_V6 R_E1_V6)))))))))))))))))))
(check-sat)
(exit)

